
  22   10
  10   10   10   10   10   10   10   10   10   10

   0   0   0   0   0   0   0   0   0   0   0   3 2 3 4 
   5  10   0   0   0   0   0   0   0   0   0   2 6 5 
   6  10   0   0   0   0   0   0   0   0   0   2 6 5 
   7   0   0   0   0   0   0  10   0   0   0   1 5 
   7   0   0   0   0   0   0   0   0   0  10   2 8 7 
   5   0   0   0   0   0   0   0  10   0   0   1 7 
   8   0   0   0  10   0   0   0   0   0   0   2 11 9 
   6   0  10   0   0   0   0   0   0   0   0   1 9 
   7   0   0   0  10   0   0   0   0   0   0   2 12 10 
   9   0  10   0   0   0   0   0   0   0   0   2 14 13 
   7   0   0   0   0   0   0   0   0  10   0   2 14 13 
   7  10   0   0   0   0   0   0   0   0   0   2 15 14 
   8   0   0   0  10   0   0   0   0   0   0   2 17 15 
   2   0   0   0   0   0   0   0   0  10   0   3 21 18 17 
   9   0   0  10   0   0   0   0   0   0   0   1 16 
  10   0   0   0   0   0   0   0   0  10   0   3 21 20 18 
   1   0   0   0   0   0   0   0  10   0   0   2 20 19 
   9   0   0  10   0   0   0   0   0   0   0   1 19 
  10   0   0   0   0   0   0   0   0   0  10   1 22
   1   0   0   0   0   0   0   0   0   0  10   1 22
   3   0   0   0   0  10   0   0   0   0   0   1 22
   0   0   0   0   0   0   0   0   0   0   0   0 
